 200 21 
 71 22 73 51 44 43 20 18 99 46 89 37 
 29 50 72 85 98 10 36 45 94 
 14 
 1 2 3 4 7 11 12 13 14 16 17 18 
 19 21 
 20 
 1 3 4 5 6 7 8 9 10 11 12 13 
 14 15 16 17 18 19 20 21 
 5 
 3 5 11 12 18 
 11 
 2 5 6 7 8 9 10 11 16 17 21 
 15 
 1 5 6 7 8 9 10 11 12 14 15 17 
 19 20 21 
 7 
 2 3 7 9 12 16 21 
 21 
 1 2 3 4 5 6 7 8 9 10 11 12 
 13 14 15 16 17 18 19 20 21 
 8 
 2 6 8 13 15 16 19 20 
 4 
 5 7 12 18 
 13 
 3 4 6 7 9 10 12 13 16 17 18 19 
 20 
 13 
 3 4 5 6 7 11 12 13 15 17 18 19 
 20 
 15 
 1 2 5 6 7 9 10 11 13 14 15 18 
 19 20 21 
 16 
 1 2 3 4 5 7 8 10 11 12 13 14 
 16 17 18 20 
 13 
 1 2 3 6 8 10 12 15 16 18 19 20 
 21 
 17 
 1 2 3 4 6 7 9 11 12 13 15 16 
 17 18 19 20 21 
 16 
 1 2 3 4 5 6 7 8 11 12 13 14 
 15 17 20 21 
 20 
 1 2 3 4 5 6 7 8 9 10 11 12 
 13 14 15 16 18 19 20 21 
 4 
 5 9 15 16 
 16 
 1 3 4 5 7 8 9 10 12 14 15 16 
 18 19 20 21 
 7 
 3 9 12 13 14 16 20 
 14 
 1 2 3 5 7 8 10 11 14 15 16 17 
 18 20 
 10 
 1 6 8 9 11 15 16 17 19 20 
 3 
 10 11 13 
 9 
 1 4 5 11 13 15 16 19 20 
 14 
 2 5 6 7 9 10 11 12 15 17 18 19 
 20 21 
 2 
 17 21 
 16 
 3 4 5 6 7 8 9 10 12 13 14 15 
 17 19 20 21 
 15 
 2 4 7 8 9 10 13 14 15 16 17 18 
 19 20 21 
 3 
 2 4 7 
 15 
 3 4 5 6 7 8 9 11 13 14 15 16 
 18 20 21 
 4 
 3 4 7 16 
 18 
 1 2 3 4 5 6 8 9 10 11 12 13 
 14 15 18 19 20 21 
 21 
 1 2 3 4 5 6 7 8 9 10 11 12 
 13 14 15 16 17 18 19 20 21 
 17 
 1 2 3 4 6 7 9 10 11 12 13 14 
 15 16 17 18 20 
 21 
 1 2 3 4 5 6 7 8 9 10 11 12 
 13 14 15 16 17 18 19 20 21 
 13 
 1 3 4 7 8 10 13 14 16 17 18 20 
 21 
 13 
 1 2 3 5 6 7 8 10 11 12 15 20 
 21 
 8 
 2 3 7 12 13 15 16 18 
 13 
 1 3 4 7 9 11 12 15 16 17 18 19 
 21 
 6 
 1 3 6 9 13 20 
 2 
 16 17 
 6 
 1 2 5 7 9 20 
 10 
 1 2 5 7 9 13 14 16 17 20 
 18 
 2 3 4 6 7 8 9 10 11 12 13 14 
 15 17 18 19 20 21 
 2 
 4 12 
 4 
 5 9 14 19 
 3 
 7 12 19 
 6 
 1 8 12 14 19 20 
 16 
 1 2 4 5 6 7 8 10 11 12 13 14 
 16 17 19 20 
 18 
 1 2 3 4 5 7 8 9 10 11 12 14 
 15 16 17 18 19 21 
 7 
 7 8 9 10 13 15 17 
 3 
 6 12 16 
 21 
 1 2 3 4 5 6 7 8 9 10 11 12 
 13 14 15 16 17 18 19 20 21 
 13 
 2 3 5 6 9 10 11 14 15 16 18 19 
 21 
 14 
 4 5 6 7 8 9 11 13 14 15 16 18 
 20 21 
 14 
 1 4 5 7 8 12 13 14 15 16 17 19 
 20 21 
 8 
 4 7 8 9 13 15 17 18 
 16 
 1 2 5 7 8 9 10 11 12 13 14 16 
 17 19 20 21 
 3 
 4 5 8 
 5 
 1 7 9 12 15 
 4 
 12 17 18 20 
 10 
 1 2 5 6 9 12 15 16 20 21 
 10 
 1 2 3 6 8 10 12 14 15 16 
 2 
 6 8 
 17 
 1 4 5 6 7 8 9 10 11 12 13 14 
 15 18 19 20 21 
 12 
 1 2 5 7 9 11 13 14 15 18 20 21 
 20 
 1 2 3 4 5 6 7 8 9 10 11 12 
 13 14 15 16 17 19 20 21 
 7 
 1 5 8 10 13 18 19 
 12 
 2 5 6 7 8 9 10 13 14 16 17 21 
 14 
 1 2 5 6 7 9 10 12 14 16 17 18 
 19 20 
 15 
 4 5 6 7 8 9 10 11 12 14 17 18 
 19 20 21 
 7 
 2 4 7 10 14 15 20 
 6 
 2 8 9 11 19 21 
 16 
 1 2 4 6 8 9 10 11 12 13 14 15 
 16 18 20 21 
 21 
 1 2 3 4 5 6 7 8 9 10 11 12 
 13 14 15 16 17 18 19 20 21 
 7 
 2 4 5 6 7 10 21 
 4 
 2 5 10 14 
 6 
 5 6 11 14 19 20 
 16 
 1 5 6 7 8 9 12 13 14 15 16 17 
 18 19 20 21 
 5 
 1 3 14 17 20 
 5 
 4 7 12 13 14 
 19 
 1 2 3 4 5 6 8 9 11 12 13 14 
 15 16 17 18 19 20 21 
 12 
 1 4 7 8 9 11 12 14 15 17 19 20 
 16 
 1 2 3 4 5 6 9 10 11 12 13 14 
 16 18 19 20 
 5 
 2 9 13 18 21 
 6 
 7 9 12 16 20 21 
 5 
 6 7 10 14 18 
 9 
 5 6 7 10 11 16 17 19 21 
 10 
 2 4 5 6 10 11 14 18 19 21 
 16 
 1 2 3 4 5 6 7 8 9 11 13 16 
 17 18 19 21 
 19 
 1 2 3 4 5 6 7 8 9 10 11 12 
 13 16 17 18 19 20 21 
 9 
 5 8 10 12 15 16 17 19 20 
 11 
 2 3 4 5 6 11 13 15 19 20 21 
 14 
 2 8 9 10 12 13 14 15 16 17 18 19 
 20 21 
 9 
 5 6 7 8 12 13 14 15 19 
 13 
 2 3 7 8 9 12 13 15 16 17 19 20 
 21 
 19 
 1 2 3 4 6 7 8 9 10 11 12 13 
 14 15 16 18 19 20 21 
 11 
 1 6 7 8 12 13 14 16 17 18 20 
 3 
 10 11 19 
 11 
 1 2 7 8 9 11 12 13 19 20 21 
 2 
 2 19 
 18 
 1 2 3 4 7 9 10 11 12 13 14 15 
 16 17 18 19 20 21 
 15 
 1 2 3 4 6 7 8 9 10 11 14 16 
 17 18 19 
 5 
 4 6 7 12 17 
 12 
 3 4 5 6 7 10 12 15 16 18 19 21 
 18 
 1 2 3 4 5 6 7 8 9 11 12 13 
 14 16 17 18 19 20 
 7 
 2 3 4 13 15 17 18 
 7 
 1 4 12 15 16 18 21 
 5 
 1 9 11 12 21 
 4 
 4 6 13 19 
 9 
 3 6 7 9 10 12 13 17 21 
 16 
 1 2 3 4 6 7 8 9 12 13 14 15 
 16 17 18 20 
 8 
 2 4 5 10 14 15 18 21 
 20 
 1 2 3 4 5 6 8 9 10 11 12 13 
 14 15 16 17 18 19 20 21 
 5 
 10 11 13 20 21 
 14 
 1 5 7 9 10 11 12 13 14 15 16 18 
 20 21 
 4 
 5 6 8 10 
 16 
 1 2 3 4 6 9 10 12 13 14 15 16 
 17 18 19 21 
 2 
 2 9 
 4 
 4 6 16 20 
 8 
 3 4 5 6 7 8 10 16 
 14 
 2 3 4 5 6 8 10 12 14 15 16 17 
 20 21 
 21 
 1 2 3 4 5 6 7 8 9 10 11 12 
 13 14 15 16 17 18 19 20 21 
 17 
 1 2 3 4 5 6 7 8 9 10 11 12 
 14 18 19 20 21 
 18 
 1 2 3 4 5 6 7 10 11 12 13 14 
 15 16 17 19 20 21 
 4 
 4 7 12 20 
 14 
 1 2 4 5 6 7 8 9 12 13 14 15 
 16 18 
 10 
 3 4 5 7 8 12 13 15 16 21 
 2 
 11 19 
 13 
 2 3 4 6 7 9 10 11 13 15 17 20 
 21 
 11 
 1 2 3 4 7 8 10 12 17 18 21 
 12 
 1 4 6 7 8 10 11 13 14 17 19 21 
 5 
 2 12 13 16 17 
 4 
 1 7 8 16 
 10 
 2 5 8 9 10 12 13 18 19 21 
 7 
 1 6 7 8 16 17 21 
 19 
 1 2 3 4 6 7 8 9 10 11 12 13 
 14 15 16 17 19 20 21 
 15 
 1 4 5 6 7 8 9 10 11 14 15 17 
 18 20 21 
 4 
 3 8 11 16 
 17 
 1 2 3 6 7 9 10 11 12 13 14 16 
 17 18 19 20 21 
 6 
 1 2 5 8 17 20 
 19 
 1 2 4 5 6 7 8 9 10 11 12 14 
 15 16 17 18 19 20 21 
 7 
 3 6 11 12 18 19 21 
 7 
 2 4 12 14 15 19 21 
 12 
 2 4 5 10 11 12 14 15 16 17 18 20 
 3 
 1 2 16 
 7 
 1 2 3 6 9 11 18 
 19 
 1 2 3 4 5 7 8 9 10 11 12 13 
 14 16 17 18 19 20 21 
 12 
 2 3 4 5 8 9 10 11 14 16 18 21 
 4 
 3 6 10 13 
 10 
 1 3 4 5 8 10 11 14 17 20 
 21 
 1 2 3 4 5 6 7 8 9 10 11 12 
 13 14 15 16 17 18 19 20 21 
 16 
 1 3 5 6 7 9 10 11 13 14 15 17 
 18 19 20 21 
 20 
 1 2 3 4 5 6 7 8 9 10 11 13 
 14 15 16 17 18 19 20 21 
 12 
 1 2 5 6 9 10 11 12 15 16 18 20 
 8 
 2 4 5 8 10 14 15 20 
 15 
 1 2 3 4 6 7 8 9 10 12 13 14 
 19 20 21 
 5 
 3 10 13 14 20 
 12 
 1 2 4 6 7 10 11 13 14 17 19 20 
 19 
 1 2 3 4 5 6 7 8 11 12 13 14 
 15 16 17 18 19 20 21 
 3 
 6 12 20 
 14 
 2 4 5 6 8 9 10 11 12 14 16 18 
 20 21 
 5 
 12 13 14 15 20 
 10 
 1 2 5 9 11 14 15 17 18 21 
 15 
 1 2 4 6 7 8 9 10 12 13 14 15 
 16 18 19 
 6 
 1 7 10 11 13 14 
 9 
 1 2 4 5 7 11 15 18 20 
 16 
 1 2 4 5 6 7 8 9 10 11 12 13 
 15 18 19 20 
 18 
 1 2 3 4 5 7 8 9 10 11 12 15 
 16 17 18 19 20 21 
 17 
 1 2 3 4 6 7 8 9 10 12 13 14 
 15 16 17 19 20 
 21 
 1 2 3 4 5 6 7 8 9 10 11 12 
 13 14 15 16 17 18 19 20 21 
 6 
 5 9 11 12 18 20 
 18 
 1 2 3 4 5 6 7 8 9 10 11 12 
 13 14 15 16 17 19 
 17 
 1 2 3 4 5 6 8 9 10 11 12 13 
 14 15 17 19 20 
 3 
 7 8 12 
 17 
 1 3 4 5 6 7 8 9 10 11 12 14 
 15 16 19 20 21 
 4 
 8 11 12 20 
 5 
 1 4 5 8 15 
 17 
 1 2 4 5 6 7 8 9 10 11 13 14 
 15 17 18 19 20 
 10 
 2 6 10 14 15 16 17 19 20 21 
 17 
 3 4 5 6 7 8 9 10 11 12 13 14 
 16 17 19 20 21 
 10 
 1 3 5 6 7 11 12 13 20 21 
 8 
 5 8 9 11 12 14 20 21 
 17 
 1 2 3 4 5 6 7 8 9 11 13 14 
 15 16 18 19 20 
 16 
 1 3 5 6 7 8 9 10 11 12 14 16 
 18 19 20 21 
 8 
 3 4 6 7 11 15 16 19 
 8 
 3 5 7 8 11 12 18 21 
 7 
 1 2 3 4 6 12 16 
 8 
 1 3 7 11 13 14 18 20 
 9 
 1 6 8 10 11 12 17 18 21 
 16 
 1 2 3 7 8 9 11 12 13 14 15 16 
 17 19 20 21 
 20 
 1 2 3 4 5 6 7 8 10 11 12 13 
 14 15 16 17 18 19 20 21 
 14 
 1 2 4 5 7 8 10 12 13 14 16 17 
 19 20 
 3 
 1 4 9 
 8 
 3 4 6 16 17 19 20 21 
 5 
 1 3 9 11 20 
 10 
 2 3 4 7 10 12 13 14 16 21 
 18 
 2 3 4 5 6 7 8 9 10 11 12 14 
 15 16 17 18 19 21 
 9 
 1 4 8 9 10 11 18 19 20 
 15 
 2 5 6 8 9 10 11 13 15 16 17 18 
 19 20 21 
 